solution status: optimal solution found
objective value:                     172806.719571429
d11(0,0)                                            1 	(obj:0)
d11(1,1)                                            1 	(obj:0)
d11(2,3)                                            1 	(obj:0)
d11(2,5)                                            1 	(obj:0)
d11(3,7)                                            1 	(obj:0)
d11(3,8)                                            1 	(obj:0)
d11(3,9)                                            1 	(obj:0)
d11(3,11)                                           1 	(obj:0)
d11(3,13)                                           1 	(obj:0)
d11(3,14)                                           1 	(obj:0)
d11(4,15)                                           1 	(obj:0)
d11(4,17)                                           1 	(obj:0)
d11(4,19)                                           1 	(obj:0)
d11(4,21)                                           1 	(obj:0)
d11(4,23)                                           1 	(obj:0)
d11(4,25)                                           1 	(obj:0)
d11(4,27)                                           1 	(obj:0)
d11(4,29)                                           1 	(obj:0)
d11(5,37)                                           1 	(obj:0)
d11(5,45)                                           1 	(obj:0)
d11(5,53)                                           1 	(obj:0)
d12(2,4)                                            1 	(obj:0)
d12(2,6)                                            1 	(obj:0)
d12(4,16)                                           1 	(obj:0)
d12(4,18)                                           1 	(obj:0)
d12(4,20)                                           1 	(obj:0)
d12(4,22)                                           1 	(obj:0)
d12(4,24)                                           1 	(obj:0)
d12(4,26)                                           1 	(obj:0)
d12(4,28)                                           1 	(obj:0)
d12(4,30)                                           1 	(obj:0)
d12(5,32)                                           1 	(obj:0)
d12(5,34)                                           1 	(obj:0)
d12(5,36)                                           1 	(obj:0)
d12(5,38)                                           1 	(obj:0)
d12(5,40)                                           1 	(obj:0)
d12(5,42)                                           1 	(obj:0)
d12(5,44)                                           1 	(obj:0)
d12(5,46)                                           1 	(obj:0)
d12(5,48)                                           1 	(obj:0)
d12(5,50)                                           1 	(obj:0)
d12(5,52)                                           1 	(obj:0)
d12(5,54)                                           1 	(obj:0)
d12(5,56)                                           1 	(obj:0)
d12(5,58)                                           1 	(obj:0)
d12(5,60)                                           1 	(obj:0)
d12(5,62)                                           1 	(obj:0)
d21(2,3)                                            1 	(obj:0)
d21(3,7)                                            1 	(obj:0)
d21(3,8)                                            1 	(obj:0)
d21(3,9)                                            1 	(obj:0)
d21(3,11)                                           1 	(obj:0)
d21(4,15)                                           1 	(obj:0)
d21(4,16)                                           1 	(obj:0)
d21(4,17)                                           1 	(obj:0)
d21(4,19)                                           1 	(obj:0)
d21(4,20)                                           1 	(obj:0)
d21(4,23)                                           1 	(obj:0)
d21(5,31)                                           1 	(obj:0)
d21(5,32)                                           1 	(obj:0)
d21(5,33)                                           1 	(obj:0)
d21(5,34)                                           1 	(obj:0)
d21(5,35)                                           1 	(obj:0)
d21(5,36)                                           1 	(obj:0)
d21(5,37)                                           1 	(obj:0)
d21(5,39)                                           1 	(obj:0)
d21(5,40)                                           1 	(obj:0)
d21(5,41)                                           1 	(obj:0)
d21(5,43)                                           1 	(obj:0)
d21(5,47)                                           1 	(obj:0)
d21(5,48)                                           1 	(obj:0)
d21(5,49)                                           1 	(obj:0)
d21(5,55)                                           1 	(obj:0)
y2(5,40)                             1385.48851144895 	(obj:0)
y2(5,42)                             1385.48851144895 	(obj:0)
y2(5,44)                             1385.48851144895 	(obj:0)
y2(5,46)                             1385.48851144895 	(obj:0)
y2(5,48)                             1385.48851144895 	(obj:0)
y2(5,50)                             1385.48851144895 	(obj:0)
y2(5,52)                             1385.48851144895 	(obj:0)
y2(5,54)                             1385.48851144895 	(obj:0)
y2(5,56)                             1385.48851144895 	(obj:0)
y2(5,58)                             1385.48851144895 	(obj:0)
y2(5,60)                             1385.48851144895 	(obj:0)
y2(5,62)                             1385.48851144895 	(obj:0)
STE(1,1)                             2688.75010111115 	(obj:0)
STE(0,0)                                         4725 	(obj:0)
STE(1,2)                                         4347 	(obj:0)
STE(2,3)                                         1890 	(obj:0)
STE(2,4)                             3252.53953068248 	(obj:0)
STE(2,5)                             3548.24989888885 	(obj:0)
STE(2,6)                             4910.78942957133 	(obj:0)
STE(3,7)                            -146.249898888846 	(obj:0)
STE(3,8)                             1511.99999999997 	(obj:0)
STE(3,9)                             1216.28963179364 	(obj:0)
STE(3,10)                            2874.53953068248 	(obj:0)
STE(3,11)                                        1512 	(obj:0)
STE(3,12)                            3170.24989888885 	(obj:0)
STE(3,13)                            2874.53953068248 	(obj:0)
STE(3,14)                             4532.7894295713 	(obj:0)
STE(4,15)                           -1048.49979777769 	(obj:0)
STE(4,16)                             325.43527186419 	(obj:0)
STE(4,17)                            609.750101111124 	(obj:0)
STE(4,18)                            1983.68517075301 	(obj:0)
STE(4,19)                            314.039732904788 	(obj:0)
STE(4,20)                            1687.97480254667 	(obj:0)
STE(4,21)                            1972.28963179363 	(obj:0)
STE(4,22)                            3346.22470143552 	(obj:0)
STE(4,23)                            609.750101111153 	(obj:0)
STE(4,24)                            1983.68517075304 	(obj:0)
STE(4,25)                                        2268 	(obj:0)
STE(4,26)                            3641.93506964188 	(obj:0)
STE(4,27)                            1972.28963179363 	(obj:0)
STE(4,28)                            3346.22470143552 	(obj:0)
STE(4,29)                            3630.53953068245 	(obj:0)
STE(4,30)                            5004.47460032433 	(obj:0)
STE(5,31)                           -1426.49979777769 	(obj:0)
STE(5,32)                           -110.285711901188 	(obj:0)
STE(5,33)                           -52.5647281358101 	(obj:0)
STE(5,34)                             1263.6493577407 	(obj:0)
STE(5,35)                            231.750101111124 	(obj:0)
STE(5,36)                            1547.96418698763 	(obj:0)
STE(5,37)                            1605.68517075305 	(obj:0)
STE(5,38)                            2921.89925662951 	(obj:0)
STE(5,39)                           -63.9602670952115 	(obj:0)
STE(5,40)                            1252.25381878129 	(obj:0)
STE(5,41)                            1309.97480254667 	(obj:0)
STE(5,42)                            2626.18888842318 	(obj:0)
STE(5,43)                            1594.28963179363 	(obj:0)
STE(5,44)                            2910.50371767014 	(obj:0)
STE(5,45)                            2968.22470143552 	(obj:0)
STE(5,46)                            4284.43878731202 	(obj:0)
STE(5,47)                            231.750101111153 	(obj:0)
STE(5,48)                            1547.96418698766 	(obj:0)
STE(5,49)                            1605.68517075304 	(obj:0)
STE(5,50)                            2921.89925662954 	(obj:0)
STE(5,51)                                        1890 	(obj:0)
STE(5,52)                             3206.2140858765 	(obj:0)
STE(5,53)                            3263.93506964188 	(obj:0)
STE(5,54)                            4580.14915551839 	(obj:0)
STE(5,55)                            1594.28963179363 	(obj:0)
STE(5,56)                            2910.50371767014 	(obj:0)
STE(5,57)                            2968.22470143552 	(obj:0)
STE(5,58)                            4284.43878731202 	(obj:0)
STE(5,59)                            3252.53953068245 	(obj:0)
STE(5,60)                            4568.75361655896 	(obj:0)
STE(5,61)                            4626.47460032433 	(obj:0)
STE(5,62)                            5942.68868620084 	(obj:0)
AVE(1)                                   3216.9117036 	(obj:0)
WB(2)                                    3366.1541945 	(obj:0)
AVE(2)                                   3366.1541945 	(obj:0)
AVE(3)                                   3515.3966854 	(obj:0)
WB(4)                                3515.39406545826 	(obj:0)
AVE(4)                               3515.39406545826 	(obj:0)
WB(5)                                3167.15385943327 	(obj:0)
AVE(5)                               3167.15385943327 	(obj:0)
WG(1)                                    3216.9117036 	(obj:10)
WG(3)                                    3515.3966854 	(obj:10)
BG(1)                                979.380795379591 	(obj:10)
BG(2)                                3059.81309285722 	(obj:10)
BG(3)                                680.895813579591 	(obj:10)
BG(4)                                3154.86392755102 	(obj:10)
BG(5)                                2673.40993877551 	(obj:10)
y1(1,1)                              1492.42490899996 	(obj:0)
y1(2,3)                              378.675091000039 	(obj:0)
y1(2,5)                              378.675091000039 	(obj:0)
y1(3,7)                              1492.42490899996 	(obj:0)
y1(3,9)                              1492.42490899996 	(obj:0)
y1(3,11)                             1492.42490899996 	(obj:0)
y1(3,13)                             1492.42490899996 	(obj:0)
y1(4,15)                             471.824908999963 	(obj:0)
y1(4,17)                             471.824908999963 	(obj:0)
y1(4,19)                             471.824908999963 	(obj:0)
y1(4,21)                             471.824908999963 	(obj:0)
y1(4,23)                             471.824908999962 	(obj:0)
y1(4,25)                             471.824908999963 	(obj:0)
y1(4,27)                             471.824908999963 	(obj:0)
y1(4,29)                             471.824908999963 	(obj:0)
y2(2,4)                              991.357294285608 	(obj:0)
y2(2,6)                              991.357294285608 	(obj:0)
y2(4,16)                             894.405442897933 	(obj:0)
y2(4,18)                             894.405442897933 	(obj:0)
y2(4,20)                             894.405442897933 	(obj:0)
y2(4,22)                             894.405442897933 	(obj:0)
y2(4,24)                             894.405442897933 	(obj:0)
y2(4,26)                             894.405442897933 	(obj:0)
y2(4,28)                             894.405442897933 	(obj:0)
y2(4,30)                             894.405442897932 	(obj:0)
y2(5,32)                             1385.48851144895 	(obj:0)
y2(5,34)                             1385.48851144895 	(obj:0)
y2(5,36)                             1385.48851144895 	(obj:0)
y2(5,38)                             1385.48851144895 	(obj:0)
